\ENCODING=ISO-8859-1
\Problem name: IloCplex

Minimize
 obj: x1 + 3 x2 + x3 + x4 + 3 x5 + 3 x6 + 4 x7 + 2 x8 + x9 + 3 x10 + 4 x11
      + 4 x12 + 4 x13 + 2 x14 + 4 x15 + 4 x16 + 4 x17 + 2 x18 + x19 + x20 + x21
      + x22 + 2 x23 + 2 x24 + 3 x25 + 2 x26 + 2 x27 + 3 x28 + 3 x29
Subject To
 c1:  x2 + x9 + x16 + x23 >= 1
 c2:  x3 + x10 + x17 + x24 >= 1
 c3:  x4 + x11 + x18 + x25 >= 1
 c4:  x5 + x12 + x19 + x26 >= 1
 c5:  x6 + x13 + x20 + x27 >= 1
 c6:  x7 + x14 + x21 + x28 >= 1
 c7:  x8 + x15 + x22 + x29 >= 1
 c8:  x2 + x33 + x34 + x35 >= -2
 c9:  x3 + x33 + x34 + x35 >= 0
 c10: x4 + x33 + x34 + x35 >= 0
 c11: x5 + x33 + x34 + x35 >= 0
 c12: x6 + x33 + x34 + x35 >= 0
 c13: x7 + x33 + x34 + x35 >= 0
 c14: x8 + x33 + x34 + x35 >= 0
 c15: x9 + x30 + x32 + x33 >= 0
 c16: x10 + x30 + x32 + x33 >= 0
 c17: x11 + x30 + x32 + x33 >= 0
 c18: x12 + x30 + x32 + x33 >= 0
 c19: x13 + x30 + x32 + x33 >= 0
 c20: x14 + x30 + x32 + x33 >= 0
 c21: x15 + x30 + x32 + x33 >= 0
 c22: x16 + x30 + x31 + x35 >= 0
 c23: x17 + x30 + x31 + x35 >= 0
 c24: x18 + x30 + x31 + x35 >= 0
 c25: x19 + x30 + x31 + x35 >= 0
 c26: x20 + x30 + x31 + x35 >= 0
 c27: x21 + x30 + x31 + x35 >= 0
 c28: x22 + x30 + x31 + x35 >= 0
 c29: x23 + x31 + x32 + x34 >= 0
 c30: x24 + x31 + x32 + x34 >= 0
 c31: x25 + x31 + x32 + x34 >= 0
 c32: x26 + x31 + x32 + x34 >= 0
 c33: x27 + x31 + x32 + x34 >= 0
 c34: x28 + x31 + x32 + x34 >= 0
 c35: x29 + x31 + x32 + x34 >= 0
 c36: >= 0
Bounds
      x1 = 0
End
